p cnf 329 745
144 -14 12 -11 0
-144 14 0
-144 -12 0
-144 11 0
145 -69 67 -66 0
-145 69 0
-145 -67 0
-145 66 0
146 -41 39 -38 0
-146 41 0
-146 -39 0
-146 38 0
147 -54 52 -51 0
-147 54 0
-147 -52 0
-147 51 0
148 -1 0
-148 1 0
149 -105 103 -102 0
-149 105 0
-149 -103 0
-149 102 0
150 -21 19 -18 0
-150 21 0
-150 -19 0
-150 18 0
151 -125 123 -122 0
-151 125 0
-151 -123 0
-151 122 0
152 -8 7 -6 0
-152 8 0
-152 -7 0
-152 6 0
153 -30 28 -27 0
-153 30 0
-153 -28 0
-153 27 0
154 -86 84 -83 0
-154 86 0
-154 -84 0
-154 83 0
-2 144 145 146 147 148 149 150 151 152 153 154 0
2 -144 0
2 -145 0
2 -146 0
2 -147 0
2 -148 0
2 -149 0
2 -150 0
2 -151 0
2 -152 0
2 -153 0
2 -154 0
155 -19 -18 0
-155 19 0
-155 18 0
156 -39 -38 0
-156 39 0
-156 38 0
157 -84 -83 0
-157 84 0
-157 83 0
158 -3 -2 0
-158 3 0
-158 2 0
159 -123 -122 0
-159 123 0
-159 122 0
160 -7 -6 0
-160 7 0
-160 6 0
161 -52 -51 0
-161 52 0
-161 51 0
162 -103 -102 0
-162 103 0
-162 102 0
163 -28 -27 0
-163 28 0
-163 27 0
164 -12 -11 0
-164 12 0
-164 11 0
165 -67 -66 0
-165 67 0
-165 66 0
-4 155 156 157 158 159 160 161 162 163 164 165 0
4 -155 0
4 -156 0
4 -157 0
4 -158 0
4 -159 0
4 -160 0
4 -161 0
4 -162 0
4 -163 0
4 -164 0
4 -165 0
166 -107 104 -102 0
-166 107 0
-166 -104 0
-166 102 0
167 -15 13 -11 0
-167 15 0
-167 -13 0
-167 11 0
168 -5 0
-168 5 0
169 -43 40 -38 0
-169 43 0
-169 -40 0
-169 38 0
170 -88 85 -83 0
-170 88 0
-170 -85 0
-170 83 0
171 -23 20 -18 0
-171 23 0
-171 -20 0
-171 18 0
172 -32 29 -27 0
-172 32 0
-172 -29 0
-172 27 0
173 -71 68 -66 0
-173 71 0
-173 -68 0
-173 66 0
174 -56 53 -51 0
-174 56 0
-174 -53 0
-174 51 0
175 -127 124 -122 0
-175 127 0
-175 -124 0
-175 122 0
-6 166 167 168 169 170 171 172 173 174 175 0
6 -166 0
6 -167 0
6 -168 0
6 -169 0
6 -170 0
6 -171 0
6 -172 0
6 -173 0
6 -174 0
6 -175 0
176 -8 0
-176 8 0
177 -7 0
-177 7 0
-9 176 177 0
9 -176 0
9 -177 0
178 -73 70 -66 0
-178 73 0
-178 -70 0
-178 66 0
179 -90 87 -83 0
-179 90 0
-179 -87 0
-179 83 0
180 -129 126 -122 0
-180 129 0
-180 -126 0
-180 122 0
181 -34 31 -27 0
-181 34 0
-181 -31 0
-181 27 0
182 -58 55 -51 0
-182 58 0
-182 -55 0
-182 51 0
183 -109 106 -102 0
-183 109 0
-183 -106 0
-183 102 0
184 -10 0
-184 10 0
185 -45 42 -38 0
-185 45 0
-185 -42 0
-185 38 0
186 -24 22 -18 0
-186 24 0
-186 -22 0
-186 18 0
-11 178 179 180 181 182 183 184 185 186 0
11 -178 0
11 -179 0
11 -180 0
11 -181 0
11 -182 0
11 -183 0
11 -184 0
11 -185 0
11 -186 0
187 -12 0
-187 12 0
188 -14 0
-188 14 0
-13 187 188 0
13 -187 0
13 -188 0
189 -15 0
-189 15 0
190 -13 0
-190 13 0
-16 189 190 0
16 -189 0
16 -190 0
191 -60 57 -51 0
-191 60 0
-191 -57 0
-191 51 0
192 -92 89 -83 0
-192 92 0
-192 -89 0
-192 83 0
193 -17 0
-193 17 0
194 -131 128 -122 0
-194 131 0
-194 -128 0
-194 122 0
195 -35 33 -27 0
-195 35 0
-195 -33 0
-195 27 0
196 -111 108 -102 0
-196 111 0
-196 -108 0
-196 102 0
197 -47 44 -38 0
-197 47 0
-197 -44 0
-197 38 0
198 -75 72 -66 0
-198 75 0
-198 -72 0
-198 66 0
-18 191 192 193 194 195 196 197 198 0
18 -191 0
18 -192 0
18 -193 0
18 -194 0
18 -195 0
18 -196 0
18 -197 0
18 -198 0
199 -19 0
-199 19 0
200 -21 0
-200 21 0
-20 199 200 0
20 -199 0
20 -200 0
201 -23 0
-201 23 0
202 -20 0
-202 20 0
-22 201 202 0
22 -201 0
22 -202 0
203 -22 0
-203 22 0
204 -24 0
-204 24 0
-25 203 204 0
25 -203 0
25 -204 0
205 -113 110 -102 0
-205 113 0
-205 -110 0
-205 102 0
206 -133 130 -122 0
-206 133 0
-206 -130 0
-206 122 0
207 -62 59 -51 0
-207 62 0
-207 -59 0
-207 51 0
208 -48 46 -38 0
-208 48 0
-208 -46 0
-208 38 0
209 -94 91 -83 0
-209 94 0
-209 -91 0
-209 83 0
210 -77 74 -66 0
-210 77 0
-210 -74 0
-210 66 0
211 -26 0
-211 26 0
-27 205 206 207 208 209 210 211 0
27 -205 0
27 -206 0
27 -207 0
27 -208 0
27 -209 0
27 -210 0
27 -211 0
212 -28 0
-212 28 0
213 -30 0
-213 30 0
-29 212 213 0
29 -212 0
29 -213 0
214 -32 0
-214 32 0
215 -29 0
-215 29 0
-31 214 215 0
31 -214 0
31 -215 0
216 -31 0
-216 31 0
217 -34 0
-217 34 0
-33 216 217 0
33 -216 0
33 -217 0
218 -35 0
-218 35 0
219 -33 0
-219 33 0
-36 218 219 0
36 -218 0
36 -219 0
220 -135 132 -122 0
-220 135 0
-220 -132 0
-220 122 0
221 -115 112 -102 0
-221 115 0
-221 -112 0
-221 102 0
222 -96 93 -83 0
-222 96 0
-222 -93 0
-222 83 0
223 -37 0
-223 37 0
224 -63 61 -51 0
-224 63 0
-224 -61 0
-224 51 0
225 -79 76 -66 0
-225 79 0
-225 -76 0
-225 66 0
-38 220 221 222 223 224 225 0
38 -220 0
38 -221 0
38 -222 0
38 -223 0
38 -224 0
38 -225 0
226 -39 0
-226 39 0
227 -41 0
-227 41 0
-40 226 227 0
40 -226 0
40 -227 0
228 -40 0
-228 40 0
229 -43 0
-229 43 0
-42 228 229 0
42 -228 0
42 -229 0
230 -45 0
-230 45 0
231 -42 0
-231 42 0
-44 230 231 0
44 -230 0
44 -231 0
232 -47 0
-232 47 0
233 -44 0
-233 44 0
-46 232 233 0
46 -232 0
46 -233 0
234 -46 0
-234 46 0
235 -48 0
-235 48 0
-49 234 235 0
49 -234 0
49 -235 0
236 -50 0
-236 50 0
237 -98 95 -83 0
-237 98 0
-237 -95 0
-237 83 0
238 -80 78 -66 0
-238 80 0
-238 -78 0
-238 66 0
239 -117 114 -102 0
-239 117 0
-239 -114 0
-239 102 0
240 -137 134 -122 0
-240 137 0
-240 -134 0
-240 122 0
-51 236 237 238 239 240 0
51 -236 0
51 -237 0
51 -238 0
51 -239 0
51 -240 0
241 -54 0
-241 54 0
242 -52 0
-242 52 0
-53 241 242 0
53 -241 0
53 -242 0
243 -53 0
-243 53 0
244 -56 0
-244 56 0
-55 243 244 0
55 -243 0
55 -244 0
245 -55 0
-245 55 0
246 -58 0
-246 58 0
-57 245 246 0
57 -245 0
57 -246 0
247 -60 0
-247 60 0
248 -57 0
-248 57 0
-59 247 248 0
59 -247 0
59 -248 0
249 -62 0
-249 62 0
250 -59 0
-250 59 0
-61 249 250 0
61 -249 0
61 -250 0
251 -61 0
-251 61 0
252 -63 0
-252 63 0
-64 251 252 0
64 -251 0
64 -252 0
253 -139 136 -122 0
-253 139 0
-253 -136 0
-253 122 0
254 -99 97 -83 0
-254 99 0
-254 -97 0
-254 83 0
255 -119 116 -102 0
-255 119 0
-255 -116 0
-255 102 0
256 -65 0
-256 65 0
-66 253 254 255 256 0
66 -253 0
66 -254 0
66 -255 0
66 -256 0
257 -67 0
-257 67 0
258 -69 0
-258 69 0
-68 257 258 0
68 -257 0
68 -258 0
259 -68 0
-259 68 0
260 -71 0
-260 71 0
-70 259 260 0
70 -259 0
70 -260 0
261 -70 0
-261 70 0
262 -73 0
-262 73 0
-72 261 262 0
72 -261 0
72 -262 0
263 -72 0
-263 72 0
264 -75 0
-264 75 0
-74 263 264 0
74 -263 0
74 -264 0
265 -77 0
-265 77 0
266 -74 0
-266 74 0
-76 265 266 0
76 -265 0
76 -266 0
267 -76 0
-267 76 0
268 -79 0
-268 79 0
-78 267 268 0
78 -267 0
78 -268 0
269 -80 0
-269 80 0
270 -78 0
-270 78 0
-81 269 270 0
81 -269 0
81 -270 0
271 -82 0
-271 82 0
272 -141 138 -122 0
-272 141 0
-272 -138 0
-272 122 0
273 -120 118 -102 0
-273 120 0
-273 -118 0
-273 102 0
-83 271 272 273 0
83 -271 0
83 -272 0
83 -273 0
274 -84 0
-274 84 0
275 -86 0
-275 86 0
-85 274 275 0
85 -274 0
85 -275 0
276 -85 0
-276 85 0
277 -88 0
-277 88 0
-87 276 277 0
87 -276 0
87 -277 0
278 -90 0
-278 90 0
279 -87 0
-279 87 0
-89 278 279 0
89 -278 0
89 -279 0
280 -89 0
-280 89 0
281 -92 0
-281 92 0
-91 280 281 0
91 -280 0
91 -281 0
282 -94 0
-282 94 0
283 -91 0
-283 91 0
-93 282 283 0
93 -282 0
93 -283 0
284 -93 0
-284 93 0
285 -96 0
-285 96 0
-95 284 285 0
95 -284 0
95 -285 0
286 -98 0
-286 98 0
287 -95 0
-287 95 0
-97 286 287 0
97 -286 0
97 -287 0
288 -99 0
-288 99 0
289 -97 0
-289 97 0
-100 288 289 0
100 -288 0
100 -289 0
290 -142 140 -122 0
-290 142 0
-290 -140 0
-290 122 0
291 -101 0
-291 101 0
-102 290 291 0
102 -290 0
102 -291 0
292 -105 0
-292 105 0
293 -103 0
-293 103 0
-104 292 293 0
104 -292 0
104 -293 0
294 -107 0
-294 107 0
295 -104 0
-295 104 0
-106 294 295 0
106 -294 0
106 -295 0
296 -106 0
-296 106 0
297 -109 0
-297 109 0
-108 296 297 0
108 -296 0
108 -297 0
298 -111 0
-298 111 0
299 -108 0
-299 108 0
-110 298 299 0
110 -298 0
110 -299 0
300 -110 0
-300 110 0
301 -113 0
-301 113 0
-112 300 301 0
112 -300 0
112 -301 0
302 -112 0
-302 112 0
303 -115 0
-303 115 0
-114 302 303 0
114 -302 0
114 -303 0
304 -117 0
-304 117 0
305 -114 0
-305 114 0
-116 304 305 0
116 -304 0
116 -305 0
306 -119 0
-306 119 0
307 -116 0
-307 116 0
-118 306 307 0
118 -306 0
118 -307 0
308 -118 0
-308 118 0
309 -120 0
-309 120 0
-121 308 309 0
121 -308 0
121 -309 0
310 -125 0
-310 125 0
311 -123 0
-311 123 0
-124 310 311 0
124 -310 0
124 -311 0
312 -127 0
-312 127 0
313 -124 0
-313 124 0
-126 312 313 0
126 -312 0
126 -313 0
314 -126 0
-314 126 0
315 -129 0
-315 129 0
-128 314 315 0
128 -314 0
128 -315 0
316 -131 0
-316 131 0
317 -128 0
-317 128 0
-130 316 317 0
130 -316 0
130 -317 0
318 -133 0
-318 133 0
319 -130 0
-319 130 0
-132 318 319 0
132 -318 0
132 -319 0
320 -135 0
-320 135 0
321 -132 0
-321 132 0
-134 320 321 0
134 -320 0
134 -321 0
322 -137 0
-322 137 0
323 -134 0
-323 134 0
-136 322 323 0
136 -322 0
136 -323 0
324 -139 0
-324 139 0
325 -136 0
-325 136 0
-138 324 325 0
138 -324 0
138 -325 0
326 -141 0
-326 141 0
327 -138 0
-327 138 0
-140 326 327 0
140 -326 0
140 -327 0
328 -140 0
-328 140 0
329 -142 0
-329 142 0
-143 328 329 0
143 -328 0
143 -329 0
c p weight 1 0.5 0
c p weight -1 0.5 0
c p weight 2 1.0 0
c p weight -2 1.0 0
c p weight 3 1.0 0
c p weight -3 0.0 0
c p weight 4 1.0 0
c p weight -4 0.0 0
c p weight 5 0.5 0
c p weight -5 0.5 0
c p weight 6 1.0 0
c p weight -6 1.0 0
c p weight 7 0.5 0
c p weight -7 0.5 0
c p weight 8 1.0 0
c p weight -8 0.0 0
c p weight 9 1.0 0
c p weight -9 1.0 0
c p weight 10 0.5 0
c p weight -10 0.5 0
c p weight 11 1.0 0
c p weight -11 1.0 0
c p weight 12 0.3333333333333333 0
c p weight -12 0.6666666666666667 0
c p weight 13 1.0 0
c p weight -13 1.0 0
c p weight 14 0.49999999999999994 0
c p weight -14 0.5 0
c p weight 15 0.9999999999999997 0
c p weight -15 3.3306690738754696e-16 0
c p weight 16 1.0 0
c p weight -16 1.0 0
c p weight 17 0.5 0
c p weight -17 0.5 0
c p weight 18 1.0 0
c p weight -18 1.0 0
c p weight 19 0.25 0
c p weight -19 0.75 0
c p weight 20 1.0 0
c p weight -20 1.0 0
c p weight 21 0.3333333333333333 0
c p weight -21 0.6666666666666667 0
c p weight 22 1.0 0
c p weight -22 1.0 0
c p weight 23 0.5 0
c p weight -23 0.5 0
c p weight 24 1.0 0
c p weight -24 0.0 0
c p weight 25 1.0 0
c p weight -25 1.0 0
c p weight 26 0.5 0
c p weight -26 0.5 0
c p weight 27 1.0 0
c p weight -27 1.0 0
c p weight 28 0.2 0
c p weight -28 0.8 0
c p weight 29 1.0 0
c p weight -29 1.0 0
c p weight 30 0.25 0
c p weight -30 0.75 0
c p weight 31 1.0 0
c p weight -31 1.0 0
c p weight 32 0.3333333333333333 0
c p weight -32 0.6666666666666667 0
c p weight 33 1.0 0
c p weight -33 1.0 0
c p weight 34 0.49999999999999994 0
c p weight -34 0.5 0
c p weight 35 0.9999999999999998 0
c p weight -35 2.220446049250313e-16 0
c p weight 36 1.0 0
c p weight -36 1.0 0
c p weight 37 0.5 0
c p weight -37 0.5 0
c p weight 38 1.0 0
c p weight -38 1.0 0
c p weight 39 0.16666666666666666 0
c p weight -39 0.8333333333333334 0
c p weight 40 1.0 0
c p weight -40 1.0 0
c p weight 41 0.19999999999999998 0
c p weight -41 0.8 0
c p weight 42 1.0 0
c p weight -42 1.0 0
c p weight 43 0.24999999999999997 0
c p weight -43 0.75 0
c p weight 44 1.0 0
c p weight -44 1.0 0
c p weight 45 0.33333333333333326 0
c p weight -45 0.6666666666666667 0
c p weight 46 1.0 0
c p weight -46 1.0 0
c p weight 47 0.4999999999999998 0
c p weight -47 0.5000000000000002 0
c p weight 48 0.999999999999999 0
c p weight -48 9.992007221626409e-16 0
c p weight 49 1.0 0
c p weight -49 1.0 0
c p weight 50 0.5 0
c p weight -50 0.5 0
c p weight 51 1.0 0
c p weight -51 1.0 0
c p weight 52 0.14285714285714285 0
c p weight -52 0.8571428571428572 0
c p weight 53 1.0 0
c p weight -53 1.0 0
c p weight 54 0.16666666666666666 0
c p weight -54 0.8333333333333334 0
c p weight 55 1.0 0
c p weight -55 1.0 0
c p weight 56 0.19999999999999996 0
c p weight -56 0.8 0
c p weight 57 1.0 0
c p weight -57 1.0 0
c p weight 58 0.24999999999999992 0
c p weight -58 0.7500000000000001 0
c p weight 59 1.0 0
c p weight -59 1.0 0
c p weight 60 0.33333333333333315 0
c p weight -60 0.6666666666666669 0
c p weight 61 1.0 0
c p weight -61 1.0 0
c p weight 62 0.4999999999999996 0
c p weight -62 0.5000000000000004 0
c p weight 63 0.9999999999999984 0
c p weight -63 1.5543122344752192e-15 0
c p weight 64 1.0 0
c p weight -64 1.0 0
c p weight 65 0.5 0
c p weight -65 0.5 0
c p weight 66 1.0 0
c p weight -66 1.0 0
c p weight 67 0.125 0
c p weight -67 0.875 0
c p weight 68 1.0 0
c p weight -68 1.0 0
c p weight 69 0.14285714285714285 0
c p weight -69 0.8571428571428572 0
c p weight 70 1.0 0
c p weight -70 1.0 0
c p weight 71 0.16666666666666666 0
c p weight -71 0.8333333333333334 0
c p weight 72 1.0 0
c p weight -72 1.0 0
c p weight 73 0.2 0
c p weight -73 0.8 0
c p weight 74 1.0 0
c p weight -74 1.0 0
c p weight 75 0.25 0
c p weight -75 0.75 0
c p weight 76 1.0 0
c p weight -76 1.0 0
c p weight 77 0.3333333333333333 0
c p weight -77 0.6666666666666667 0
c p weight 78 1.0 0
c p weight -78 1.0 0
c p weight 79 0.5 0
c p weight -79 0.5 0
c p weight 80 1.0 0
c p weight -80 0.0 0
c p weight 81 1.0 0
c p weight -81 1.0 0
c p weight 82 0.5 0
c p weight -82 0.5 0
c p weight 83 1.0 0
c p weight -83 1.0 0
c p weight 84 0.1111111111111111 0
c p weight -84 0.8888888888888888 0
c p weight 85 1.0 0
c p weight -85 1.0 0
c p weight 86 0.125 0
c p weight -86 0.875 0
c p weight 87 1.0 0
c p weight -87 1.0 0
c p weight 88 0.14285714285714288 0
c p weight -88 0.8571428571428571 0
c p weight 89 1.0 0
c p weight -89 1.0 0
c p weight 90 0.16666666666666669 0
c p weight -90 0.8333333333333333 0
c p weight 91 1.0 0
c p weight -91 1.0 0
c p weight 92 0.20000000000000007 0
c p weight -92 0.7999999999999999 0
c p weight 93 1.0 0
c p weight -93 1.0 0
c p weight 94 0.2500000000000001 0
c p weight -94 0.7499999999999999 0
c p weight 95 1.0 0
c p weight -95 1.0 0
c p weight 96 0.3333333333333335 0
c p weight -96 0.6666666666666665 0
c p weight 97 1.0 0
c p weight -97 1.0 0
c p weight 98 0.5000000000000003 0
c p weight -98 0.49999999999999967 0
c p weight 99 1.0 0
c p weight -99 0.0 0
c p weight 100 1.0 0
c p weight -100 1.0 0
c p weight 101 0.5 0
c p weight -101 0.5 0
c p weight 102 1.0 0
c p weight -102 1.0 0
c p weight 103 0.1 0
c p weight -103 0.9 0
c p weight 104 1.0 0
c p weight -104 1.0 0
c p weight 105 0.11111111111111112 0
c p weight -105 0.8888888888888888 0
c p weight 106 1.0 0
c p weight -106 1.0 0
c p weight 107 0.125 0
c p weight -107 0.875 0
c p weight 108 1.0 0
c p weight -108 1.0 0
c p weight 109 0.14285714285714285 0
c p weight -109 0.8571428571428572 0
c p weight 110 1.0 0
c p weight -110 1.0 0
c p weight 111 0.16666666666666666 0
c p weight -111 0.8333333333333334 0
c p weight 112 1.0 0
c p weight -112 1.0 0
c p weight 113 0.19999999999999996 0
c p weight -113 0.8 0
c p weight 114 1.0 0
c p weight -114 1.0 0
c p weight 115 0.24999999999999994 0
c p weight -115 0.75 0
c p weight 116 1.0 0
c p weight -116 1.0 0
c p weight 117 0.3333333333333332 0
c p weight -117 0.6666666666666667 0
c p weight 118 1.0 0
c p weight -118 1.0 0
c p weight 119 0.49999999999999967 0
c p weight -119 0.5000000000000003 0
c p weight 120 0.9999999999999987 0
c p weight -120 1.3322676295501878e-15 0
c p weight 121 1.0 0
c p weight -121 1.0 0
c p weight 122 0.5 0
c p weight -122 0.5 0
c p weight 123 0.09090909090909091 0
c p weight -123 0.9090909090909091 0
c p weight 124 1.0 0
c p weight -124 1.0 0
c p weight 125 0.1 0
c p weight -125 0.9 0
c p weight 126 1.0 0
c p weight -126 1.0 0
c p weight 127 0.11111111111111112 0
c p weight -127 0.8888888888888888 0
c p weight 128 1.0 0
c p weight -128 1.0 0
c p weight 129 0.12500000000000003 0
c p weight -129 0.875 0
c p weight 130 1.0 0
c p weight -130 1.0 0
c p weight 131 0.14285714285714288 0
c p weight -131 0.8571428571428571 0
c p weight 132 1.0 0
c p weight -132 1.0 0
c p weight 133 0.1666666666666667 0
c p weight -133 0.8333333333333333 0
c p weight 134 1.0 0
c p weight -134 1.0 0
c p weight 135 0.2000000000000001 0
c p weight -135 0.7999999999999999 0
c p weight 136 1.0 0
c p weight -136 1.0 0
c p weight 137 0.25000000000000017 0
c p weight -137 0.7499999999999998 0
c p weight 138 1.0 0
c p weight -138 1.0 0
c p weight 139 0.33333333333333365 0
c p weight -139 0.6666666666666663 0
c p weight 140 1.0 0
c p weight -140 1.0 0
c p weight 141 0.5000000000000007 0
c p weight -141 0.49999999999999933 0
c p weight 142 1.0 0
c p weight -142 0.0 0
c p weight 143 1.0 0
c p weight -143 1.0 0
c p weight 144 1.0 0
c p weight -144 1.0 0
c p weight 145 1.0 0
c p weight -145 1.0 0
c p weight 146 1.0 0
c p weight -146 1.0 0
c p weight 147 1.0 0
c p weight -147 1.0 0
c p weight 148 1.0 0
c p weight -148 1.0 0
c p weight 149 1.0 0
c p weight -149 1.0 0
c p weight 150 1.0 0
c p weight -150 1.0 0
c p weight 151 1.0 0
c p weight -151 1.0 0
c p weight 152 1.0 0
c p weight -152 1.0 0
c p weight 153 1.0 0
c p weight -153 1.0 0
c p weight 154 1.0 0
c p weight -154 1.0 0
c p weight 155 1.0 0
c p weight -155 1.0 0
c p weight 156 1.0 0
c p weight -156 1.0 0
c p weight 157 1.0 0
c p weight -157 1.0 0
c p weight 158 1.0 0
c p weight -158 1.0 0
c p weight 159 1.0 0
c p weight -159 1.0 0
c p weight 160 1.0 0
c p weight -160 1.0 0
c p weight 161 1.0 0
c p weight -161 1.0 0
c p weight 162 1.0 0
c p weight -162 1.0 0
c p weight 163 1.0 0
c p weight -163 1.0 0
c p weight 164 1.0 0
c p weight -164 1.0 0
c p weight 165 1.0 0
c p weight -165 1.0 0
c p weight 166 1.0 0
c p weight -166 1.0 0
c p weight 167 1.0 0
c p weight -167 1.0 0
c p weight 168 1.0 0
c p weight -168 1.0 0
c p weight 169 1.0 0
c p weight -169 1.0 0
c p weight 170 1.0 0
c p weight -170 1.0 0
c p weight 171 1.0 0
c p weight -171 1.0 0
c p weight 172 1.0 0
c p weight -172 1.0 0
c p weight 173 1.0 0
c p weight -173 1.0 0
c p weight 174 1.0 0
c p weight -174 1.0 0
c p weight 175 1.0 0
c p weight -175 1.0 0
c p weight 176 1.0 0
c p weight -176 1.0 0
c p weight 177 1.0 0
c p weight -177 1.0 0
c p weight 178 1.0 0
c p weight -178 1.0 0
c p weight 179 1.0 0
c p weight -179 1.0 0
c p weight 180 1.0 0
c p weight -180 1.0 0
c p weight 181 1.0 0
c p weight -181 1.0 0
c p weight 182 1.0 0
c p weight -182 1.0 0
c p weight 183 1.0 0
c p weight -183 1.0 0
c p weight 184 1.0 0
c p weight -184 1.0 0
c p weight 185 1.0 0
c p weight -185 1.0 0
c p weight 186 1.0 0
c p weight -186 1.0 0
c p weight 187 1.0 0
c p weight -187 1.0 0
c p weight 188 1.0 0
c p weight -188 1.0 0
c p weight 189 1.0 0
c p weight -189 1.0 0
c p weight 190 1.0 0
c p weight -190 1.0 0
c p weight 191 1.0 0
c p weight -191 1.0 0
c p weight 192 1.0 0
c p weight -192 1.0 0
c p weight 193 1.0 0
c p weight -193 1.0 0
c p weight 194 1.0 0
c p weight -194 1.0 0
c p weight 195 1.0 0
c p weight -195 1.0 0
c p weight 196 1.0 0
c p weight -196 1.0 0
c p weight 197 1.0 0
c p weight -197 1.0 0
c p weight 198 1.0 0
c p weight -198 1.0 0
c p weight 199 1.0 0
c p weight -199 1.0 0
c p weight 200 1.0 0
c p weight -200 1.0 0
c p weight 201 1.0 0
c p weight -201 1.0 0
c p weight 202 1.0 0
c p weight -202 1.0 0
c p weight 203 1.0 0
c p weight -203 1.0 0
c p weight 204 1.0 0
c p weight -204 1.0 0
c p weight 205 1.0 0
c p weight -205 1.0 0
c p weight 206 1.0 0
c p weight -206 1.0 0
c p weight 207 1.0 0
c p weight -207 1.0 0
c p weight 208 1.0 0
c p weight -208 1.0 0
c p weight 209 1.0 0
c p weight -209 1.0 0
c p weight 210 1.0 0
c p weight -210 1.0 0
c p weight 211 1.0 0
c p weight -211 1.0 0
c p weight 212 1.0 0
c p weight -212 1.0 0
c p weight 213 1.0 0
c p weight -213 1.0 0
c p weight 214 1.0 0
c p weight -214 1.0 0
c p weight 215 1.0 0
c p weight -215 1.0 0
c p weight 216 1.0 0
c p weight -216 1.0 0
c p weight 217 1.0 0
c p weight -217 1.0 0
c p weight 218 1.0 0
c p weight -218 1.0 0
c p weight 219 1.0 0
c p weight -219 1.0 0
c p weight 220 1.0 0
c p weight -220 1.0 0
c p weight 221 1.0 0
c p weight -221 1.0 0
c p weight 222 1.0 0
c p weight -222 1.0 0
c p weight 223 1.0 0
c p weight -223 1.0 0
c p weight 224 1.0 0
c p weight -224 1.0 0
c p weight 225 1.0 0
c p weight -225 1.0 0
c p weight 226 1.0 0
c p weight -226 1.0 0
c p weight 227 1.0 0
c p weight -227 1.0 0
c p weight 228 1.0 0
c p weight -228 1.0 0
c p weight 229 1.0 0
c p weight -229 1.0 0
c p weight 230 1.0 0
c p weight -230 1.0 0
c p weight 231 1.0 0
c p weight -231 1.0 0
c p weight 232 1.0 0
c p weight -232 1.0 0
c p weight 233 1.0 0
c p weight -233 1.0 0
c p weight 234 1.0 0
c p weight -234 1.0 0
c p weight 235 1.0 0
c p weight -235 1.0 0
c p weight 236 1.0 0
c p weight -236 1.0 0
c p weight 237 1.0 0
c p weight -237 1.0 0
c p weight 238 1.0 0
c p weight -238 1.0 0
c p weight 239 1.0 0
c p weight -239 1.0 0
c p weight 240 1.0 0
c p weight -240 1.0 0
c p weight 241 1.0 0
c p weight -241 1.0 0
c p weight 242 1.0 0
c p weight -242 1.0 0
c p weight 243 1.0 0
c p weight -243 1.0 0
c p weight 244 1.0 0
c p weight -244 1.0 0
c p weight 245 1.0 0
c p weight -245 1.0 0
c p weight 246 1.0 0
c p weight -246 1.0 0
c p weight 247 1.0 0
c p weight -247 1.0 0
c p weight 248 1.0 0
c p weight -248 1.0 0
c p weight 249 1.0 0
c p weight -249 1.0 0
c p weight 250 1.0 0
c p weight -250 1.0 0
c p weight 251 1.0 0
c p weight -251 1.0 0
c p weight 252 1.0 0
c p weight -252 1.0 0
c p weight 253 1.0 0
c p weight -253 1.0 0
c p weight 254 1.0 0
c p weight -254 1.0 0
c p weight 255 1.0 0
c p weight -255 1.0 0
c p weight 256 1.0 0
c p weight -256 1.0 0
c p weight 257 1.0 0
c p weight -257 1.0 0
c p weight 258 1.0 0
c p weight -258 1.0 0
c p weight 259 1.0 0
c p weight -259 1.0 0
c p weight 260 1.0 0
c p weight -260 1.0 0
c p weight 261 1.0 0
c p weight -261 1.0 0
c p weight 262 1.0 0
c p weight -262 1.0 0
c p weight 263 1.0 0
c p weight -263 1.0 0
c p weight 264 1.0 0
c p weight -264 1.0 0
c p weight 265 1.0 0
c p weight -265 1.0 0
c p weight 266 1.0 0
c p weight -266 1.0 0
c p weight 267 1.0 0
c p weight -267 1.0 0
c p weight 268 1.0 0
c p weight -268 1.0 0
c p weight 269 1.0 0
c p weight -269 1.0 0
c p weight 270 1.0 0
c p weight -270 1.0 0
c p weight 271 1.0 0
c p weight -271 1.0 0
c p weight 272 1.0 0
c p weight -272 1.0 0
c p weight 273 1.0 0
c p weight -273 1.0 0
c p weight 274 1.0 0
c p weight -274 1.0 0
c p weight 275 1.0 0
c p weight -275 1.0 0
c p weight 276 1.0 0
c p weight -276 1.0 0
c p weight 277 1.0 0
c p weight -277 1.0 0
c p weight 278 1.0 0
c p weight -278 1.0 0
c p weight 279 1.0 0
c p weight -279 1.0 0
c p weight 280 1.0 0
c p weight -280 1.0 0
c p weight 281 1.0 0
c p weight -281 1.0 0
c p weight 282 1.0 0
c p weight -282 1.0 0
c p weight 283 1.0 0
c p weight -283 1.0 0
c p weight 284 1.0 0
c p weight -284 1.0 0
c p weight 285 1.0 0
c p weight -285 1.0 0
c p weight 286 1.0 0
c p weight -286 1.0 0
c p weight 287 1.0 0
c p weight -287 1.0 0
c p weight 288 1.0 0
c p weight -288 1.0 0
c p weight 289 1.0 0
c p weight -289 1.0 0
c p weight 290 1.0 0
c p weight -290 1.0 0
c p weight 291 1.0 0
c p weight -291 1.0 0
c p weight 292 1.0 0
c p weight -292 1.0 0
c p weight 293 1.0 0
c p weight -293 1.0 0
c p weight 294 1.0 0
c p weight -294 1.0 0
c p weight 295 1.0 0
c p weight -295 1.0 0
c p weight 296 1.0 0
c p weight -296 1.0 0
c p weight 297 1.0 0
c p weight -297 1.0 0
c p weight 298 1.0 0
c p weight -298 1.0 0
c p weight 299 1.0 0
c p weight -299 1.0 0
c p weight 300 1.0 0
c p weight -300 1.0 0
c p weight 301 1.0 0
c p weight -301 1.0 0
c p weight 302 1.0 0
c p weight -302 1.0 0
c p weight 303 1.0 0
c p weight -303 1.0 0
c p weight 304 1.0 0
c p weight -304 1.0 0
c p weight 305 1.0 0
c p weight -305 1.0 0
c p weight 306 1.0 0
c p weight -306 1.0 0
c p weight 307 1.0 0
c p weight -307 1.0 0
c p weight 308 1.0 0
c p weight -308 1.0 0
c p weight 309 1.0 0
c p weight -309 1.0 0
c p weight 310 1.0 0
c p weight -310 1.0 0
c p weight 311 1.0 0
c p weight -311 1.0 0
c p weight 312 1.0 0
c p weight -312 1.0 0
c p weight 313 1.0 0
c p weight -313 1.0 0
c p weight 314 1.0 0
c p weight -314 1.0 0
c p weight 315 1.0 0
c p weight -315 1.0 0
c p weight 316 1.0 0
c p weight -316 1.0 0
c p weight 317 1.0 0
c p weight -317 1.0 0
c p weight 318 1.0 0
c p weight -318 1.0 0
c p weight 319 1.0 0
c p weight -319 1.0 0
c p weight 320 1.0 0
c p weight -320 1.0 0
c p weight 321 1.0 0
c p weight -321 1.0 0
c p weight 322 1.0 0
c p weight -322 1.0 0
c p weight 323 1.0 0
c p weight -323 1.0 0
c p weight 324 1.0 0
c p weight -324 1.0 0
c p weight 325 1.0 0
c p weight -325 1.0 0
c p weight 326 1.0 0
c p weight -326 1.0 0
c p weight 327 1.0 0
c p weight -327 1.0 0
c p weight 328 1.0 0
c p weight -328 1.0 0
c p weight 329 1.0 0
c p weight -329 1.0 0
c p semirings aspmc.semirings.probabilistic 0
c p quantify 1 2 3 4 5 6 7 8 9 10 11 12 13 14 15 16 17 18 19 20 21 22 23 24 25 26 27 28 29 30 31 32 33 34 35 36 37 38 39 40 41 42 43 44 45 46 47 48 49 50 51 52 53 54 55 56 57 58 59 60 61 62 63 64 65 66 67 68 69 70 71 72 73 74 75 76 77 78 79 80 81 82 83 84 85 86 87 88 89 90 91 92 93 94 95 96 97 98 99 100 101 102 103 104 105 106 107 108 109 110 111 112 113 114 115 116 117 118 119 120 121 122 123 124 125 126 127 128 129 130 131 132 133 134 135 136 137 138 139 140 141 142 143 144 145 146 147 148 149 150 151 152 153 154 155 156 157 158 159 160 161 162 163 164 165 166 167 168 169 170 171 172 173 174 175 176 177 178 179 180 181 182 183 184 185 186 187 188 189 190 191 192 193 194 195 196 197 198 199 200 201 202 203 204 205 206 207 208 209 210 211 212 213 214 215 216 217 218 219 220 221 222 223 224 225 226 227 228 229 230 231 232 233 234 235 236 237 238 239 240 241 242 243 244 245 246 247 248 249 250 251 252 253 254 255 256 257 258 259 260 261 262 263 264 265 266 267 268 269 270 271 272 273 274 275 276 277 278 279 280 281 282 283 284 285 286 287 288 289 290 291 292 293 294 295 296 297 298 299 300 301 302 303 304 305 306 307 308 309 310 311 312 313 314 315 316 317 318 319 320 321 322 323 324 325 326 327 328 329 0
c p auxilliary 2 6 9 11 13 16 18 20 22 25 27 29 31 33 36 38 40 42 44 46 49 51 53 55 57 59 61 64 66 68 70 72 74 76 78 81 83 85 87 89 91 93 95 97 100 102 104 106 108 110 112 114 116 118 121 124 126 128 130 132 134 136 138 140 143 144 145 146 147 148 149 150 151 152 153 154 155 156 157 158 159 160 161 162 163 164 165 166 167 168 169 170 171 172 173 174 175 176 177 178 179 180 181 182 183 184 185 186 187 188 189 190 191 192 193 194 195 196 197 198 199 200 201 202 203 204 205 206 207 208 209 210 211 212 213 214 215 216 217 218 219 220 221 222 223 224 225 226 227 228 229 230 231 232 233 234 235 236 237 238 239 240 241 242 243 244 245 246 247 248 249 250 251 252 253 254 255 256 257 258 259 260 261 262 263 264 265 266 267 268 269 270 271 272 273 274 275 276 277 278 279 280 281 282 283 284 285 286 287 288 289 290 291 292 293 294 295 296 297 298 299 300 301 302 303 304 305 306 307 308 309 310 311 312 313 314 315 316 317 318 319 320 321 322 323 324 325 326 327 328 329 0
